&bands
	prefix = 'aiida'
	outdir = './out/'
	filband = 'aiida.bands.dat'
	lsym = .true.
/
