&CONTROL
  calculation = 'nscf'
  etot_conv_thr =   8.0000000000d-05
  forc_conv_thr =   1.0000000000d-04
  outdir = './out/'
  prefix = 'aiida'
  pseudo_dir = './pseudo/'
  tprnfor = .true.
  tstress = .true.
  verbosity = 'high'
/
&SYSTEM
  degauss =   2.2049585400d-02
  ecutrho =   5.6000000000d+02
  ecutwfc =   7.0000000000d+01
  ibrav = 0
  nat = 8
  nosym = .false.
  ntyp = 2
  occupations = 'smearing'
  smearing = 'cold'
/
&ELECTRONS
  conv_thr =   1.6000000000d-09
  electron_maxstep = 80
  mixing_beta =   4.0000000000d-01
/
ATOMIC_SPECIES
Ga     69.723 Ga.pbe-dn-kjpaw_psl.1.0.0.UPF
Se     78.96 Se_pbe_v1.uspp.F.UPF
ATOMIC_POSITIONS crystal
Ga           0.0000000000       0.0000000000       0.9305940000 
Ga           0.0000000000       0.0000000000       0.0694060000 
Ga           0.3333333333       0.6666666667       0.5694000000 
Ga           0.3333333333       0.6666666667       0.4306000000 
Se           0.3333333333       0.6666666667       0.1352990000 
Se           0.3333333333       0.6666666667       0.8647010000 
Se           0.6666666667       0.3333333333       0.3646930000 
Se           0.6666666667       0.3333333333       0.6353070000 
K_POINTS automatic
9 9 9 1 1 1
CELL_PARAMETERS angstrom
     -1.9095333550      -3.3074087896      -0.0000000000
     -1.9095333550       3.3074087896       0.0000000000
      0.0000000000       0.0000000000     -17.8017960000
